DIMACS_lns/graph-1000-125.col
p edge 1000 1847
e 1 239
e 1 57
e 1 93
e 1 716
e 1 297
e 2 244
e 2 1000
e 2 468
e 2 114
e 3 411
e 3 676
e 3 100
e 3 891
e 3 40
e 3 709
e 4 396
e 4 892
e 4 43
e 4 340
e 4 527
e 6 450
e 6 431
e 6 792
e 7 374
e 7 929
e 7 143
e 8 304
e 8 982
e 8 406
e 8 870
e 11 857
e 11 989
e 11 775
e 11 24
e 12 14
e 12 616
e 12 22
e 12 814
e 12 823
e 12 636
e 12 870
e 12 866
e 12 576
e 12 939
e 12 396
e 12 810
e 13 352
e 13 173
e 13 921
e 14 199
e 14 252
e 15 91
e 15 952
e 15 833
e 15 65
e 16 744
e 16 622
e 16 343
e 16 923
e 18 841
e 18 583
e 18 776
e 18 907
e 19 369
e 19 1000
e 19 150
e 19 663
e 20 231
e 20 585
e 20 501
e 20 203
e 22 925
e 22 572
e 22 278
e 22 93
e 23 331
e 23 106
e 23 609
e 23 270
e 23 451
e 23 608
e 23 841
e 24 751
e 24 895
e 24 79
e 25 946
e 25 690
e 25 640
e 25 990
e 25 747
e 26 473
e 26 694
e 26 354
e 26 315
e 26 686
e 26 416
e 27 126
e 27 136
e 27 868
e 27 414
e 28 183
e 28 314
e 28 504
e 29 721
e 29 697
e 29 646
e 29 528
e 30 87
e 30 275
e 30 405
e 31 873
e 31 714
e 31 243
e 31 173
e 31 153
e 31 895
e 31 284
e 31 621
e 32 97
e 32 723
e 32 910
e 32 979
e 34 557
e 34 537
e 34 380
e 36 924
e 36 42
e 36 294
e 36 545
e 36 686
e 36 713
e 36 931
e 37 423
e 37 273
e 37 966
e 38 282
e 38 927
e 38 298
e 39 684
e 39 378
e 39 473
e 39 564
e 40 267
e 40 346
e 40 431
e 40 436
e 41 912
e 41 672
e 41 336
e 41 252
e 42 716
e 42 595
e 43 276
e 43 820
e 43 731
e 43 332
e 43 638
e 43 76
e 43 648
e 43 975
e 43 254
e 45 370
e 45 495
e 45 952
e 45 769
e 46 666
e 46 345
e 46 751
e 46 583
e 46 534
e 47 745
e 47 358
e 47 415
e 47 682
e 47 873
e 47 768
e 48 537
e 48 695
e 48 963
e 50 185
e 50 101
e 50 241
e 50 477
e 50 86
e 52 419
e 52 438
e 52 94
e 52 845
e 52 336
e 52 727
e 52 813
e 52 812
e 54 495
e 54 845
e 54 977
e 54 951
e 54 803
e 57 560
e 57 357
e 57 564
e 58 600
e 58 347
e 58 367
e 58 603
e 58 323
e 58 89
e 61 603
e 61 767
e 61 595
e 63 471
e 63 406
e 63 676
e 63 499
e 63 346
e 63 869
e 65 135
e 65 124
e 66 504
e 66 303
e 66 703
e 66 441
e 66 335
e 67 329
e 67 421
e 67 990
e 67 807
e 68 730
e 68 230
e 68 917
e 71 499
e 71 469
e 71 611
e 71 976
e 71 794
e 71 664
e 71 441
e 72 551
e 72 506
e 72 885
e 72 978
e 73 737
e 73 256
e 73 301
e 73 967
e 74 506
e 74 377
e 74 902
e 74 465
e 74 943
e 74 959
e 76 300
e 76 783
e 76 365
e 76 709
e 76 291
e 77 983
e 77 434
e 77 620
e 77 324
e 78 141
e 78 254
e 78 927
e 78 603
e 78 638
e 79 739
e 79 545
e 79 740
e 79 464
e 80 368
e 80 434
e 80 862
e 83 372
e 83 314
e 83 224
e 83 613
e 84 986
e 84 154
e 84 709
e 84 421
e 86 232
e 86 114
e 86 765
e 86 654
e 87 926
e 87 725
e 88 911
e 88 287
e 88 578
e 88 381
e 89 867
e 89 143
e 89 288
e 89 430
e 89 307
e 90 862
e 90 608
e 90 338
e 90 914
e 90 986
e 91 280
e 91 773
e 91 552
e 91 714
e 91 486
e 92 734
e 92 680
e 92 778
e 92 911
e 92 207
e 93 750
e 93 802
e 93 381
e 94 100
e 94 247
e 94 259
e 94 552
e 95 303
e 95 721
e 95 343
e 96 494
e 96 159
e 96 838
e 96 790
e 96 570
e 96 496
e 97 541
e 97 533
e 97 665
e 98 100
e 98 200
e 98 870
e 98 496
e 98 603
e 98 102
e 99 375
e 99 166
e 99 559
e 99 144
e 99 951
e 99 727
e 100 372
e 100 905
e 100 337
e 100 138
e 101 818
e 101 759
e 101 209
e 101 361
e 102 434
e 102 946
e 102 249
e 105 194
e 105 544
e 105 480
e 105 933
e 105 272
e 105 314
e 105 368
e 106 897
e 106 560
e 106 755
e 106 588
e 107 182
e 107 977
e 107 390
e 107 929
e 107 556
e 107 854
e 108 809
e 108 683
e 108 276
e 108 602
e 108 527
e 108 500
e 108 272
e 109 673
e 109 770
e 109 867
e 111 651
e 111 140
e 111 500
e 111 510
e 111 777
e 111 519
e 111 600
e 111 891
e 112 643
e 112 631
e 112 916
e 113 560
e 113 539
e 113 313
e 114 530
e 114 898
e 114 578
e 114 122
e 114 576
e 114 776
e 115 867
e 115 264
e 115 823
e 115 141
e 115 514
e 119 703
e 119 362
e 119 901
e 122 519
e 122 275
e 122 578
e 122 388
e 123 203
e 123 146
e 123 504
e 124 935
e 124 958
e 124 282
e 124 323
e 125 776
e 125 173
e 125 744
e 125 865
e 125 729
e 126 833
e 126 650
e 126 958
e 129 219
e 129 626
e 129 397
e 129 695
e 129 572
e 129 848
e 130 446
e 130 605
e 130 984
e 130 852
e 130 152
e 131 454
e 131 331
e 131 136
e 131 166
e 131 382
e 132 622
e 132 377
e 132 983
e 134 414
e 134 853
e 134 232
e 134 804
e 134 219
e 135 287
e 135 838
e 135 826
e 135 913
e 136 171
e 136 178
e 136 951
e 138 330
e 138 612
e 138 333
e 138 466
e 139 216
e 139 955
e 139 975
e 139 204
e 140 606
e 140 568
e 140 981
e 141 687
e 141 153
e 141 355
e 141 616
e 141 251
e 142 515
e 142 284
e 142 921
e 142 419
e 142 958
e 142 463
e 142 490
e 143 508
e 143 551
e 143 618
e 144 818
e 144 857
e 144 570
e 145 164
e 145 975
e 145 955
e 145 216
e 145 725
e 145 829
e 146 609
e 146 895
e 146 338
e 147 375
e 147 866
e 147 545
e 147 224
e 147 408
e 149 940
e 149 773
e 149 318
e 149 905
e 150 970
e 150 917
e 150 251
e 151 377
e 151 460
e 151 598
e 151 499
e 151 616
e 151 987
e 152 478
e 152 182
e 152 171
e 153 509
e 153 283
e 153 193
e 153 701
e 153 354
e 153 889
e 154 390
e 154 767
e 154 810
e 154 356
e 154 300
e 154 397
e 155 226
e 155 614
e 155 828
e 155 931
e 156 612
e 156 553
e 156 903
e 156 359
e 156 441
e 156 293
e 156 877
e 159 505
e 159 629
e 159 878
e 159 827
e 159 787
e 160 467
e 160 912
e 160 648
e 162 817
e 162 413
e 162 622
e 163 330
e 163 441
e 163 581
e 163 356
e 164 536
e 164 369
e 164 651
e 164 575
e 165 787
e 165 846
e 165 802
e 165 897
e 165 416
e 166 526
e 166 381
e 166 593
e 167 892
e 167 560
e 167 275
e 171 507
e 171 768
e 171 625
e 171 794
e 171 640
e 171 699
e 171 501
e 173 513
e 173 912
e 173 628
e 176 978
e 176 740
e 176 810
e 178 988
e 178 511
e 178 747
e 178 901
e 180 615
e 180 801
e 180 505
e 180 644
e 180 259
e 181 388
e 181 189
e 181 972
e 181 295
e 182 643
e 182 388
e 182 321
e 183 268
e 183 595
e 183 347
e 184 555
e 184 713
e 184 253
e 185 434
e 185 226
e 185 835
e 186 988
e 186 611
e 186 585
e 186 515
e 186 787
e 187 431
e 187 809
e 187 571
e 187 494
e 187 195
e 187 798
e 188 928
e 188 429
e 188 736
e 188 566
e 188 291
e 189 270
e 189 582
e 189 254
e 190 305
e 190 867
e 190 831
e 190 986
e 190 830
e 190 459
e 192 309
e 192 400
e 192 482
e 192 505
e 192 625
e 192 878
e 193 959
e 193 745
e 193 649
e 194 670
e 194 588
e 194 867
e 194 737
e 194 199
e 195 485
e 195 915
e 195 974
e 196 770
e 196 957
e 196 636
e 196 432
e 196 585
e 199 653
e 199 351
e 199 406
e 199 342
e 199 973
e 200 275
e 200 446
e 200 867
e 200 493
e 201 332
e 201 465
e 201 435
e 201 618
e 201 274
e 201 806
e 201 474
e 203 795
e 203 652
e 203 368
e 204 241
e 204 492
e 206 809
e 206 751
e 206 564
e 206 625
e 206 476
e 207 381
e 207 962
e 207 539
e 209 372
e 209 884
e 209 940
e 209 713
e 209 370
e 212 333
e 212 221
e 212 699
e 215 629
e 215 832
e 215 343
e 216 973
e 216 338
e 218 829
e 218 596
e 218 353
e 218 514
e 219 420
e 219 514
e 220 683
e 220 990
e 220 900
e 221 249
e 221 797
e 221 266
e 221 514
e 222 371
e 222 742
e 222 972
e 222 381
e 223 663
e 223 273
e 223 380
e 224 416
e 224 354
e 224 880
e 224 570
e 224 455
e 226 778
e 226 682
e 226 277
e 229 468
e 229 521
e 229 982
e 229 376
e 230 849
e 230 557
e 230 765
e 230 486
e 230 322
e 230 507
e 230 548
e 230 806
e 231 741
e 231 314
e 231 748
e 231 492
e 232 945
e 232 263
e 232 845
e 232 599
e 233 868
e 233 272
e 233 553
e 234 771
e 234 866
e 234 910
e 234 376
e 234 294
e 234 785
e 234 595
e 236 403
e 236 247
e 236 700
e 236 802
e 236 416
e 238 463
e 238 687
e 238 694
e 239 926
e 239 434
e 239 596
e 241 320
e 241 924
e 241 492
e 243 741
e 243 408
e 243 315
e 243 777
e 244 455
e 244 522
e 244 337
e 244 609
e 244 329
e 247 599
e 247 786
e 247 492
e 247 499
e 247 916
e 249 742
e 249 470
e 249 375
e 249 338
e 251 438
e 252 711
e 252 988
e 253 884
e 253 311
e 253 644
e 253 340
e 254 381
e 254 826
e 254 622
e 255 507
e 255 339
e 255 586
e 255 333
e 256 382
e 256 729
e 259 366
e 259 453
e 259 471
e 259 615
e 259 444
e 259 814
e 261 966
e 261 871
e 261 607
e 263 992
e 263 974
e 263 272
e 263 560
e 264 491
e 264 824
e 264 622
e 265 680
e 265 480
e 265 309
e 266 941
e 266 727
e 266 737
e 267 751
e 267 898
e 267 794
e 267 357
e 267 887
e 267 962
e 268 599
e 268 802
e 268 712
e 269 617
e 269 904
e 269 604
e 269 506
e 270 905
e 270 988
e 270 797
e 270 529
e 272 938
e 272 374
e 272 369
e 273 723
e 273 865
e 274 730
e 274 349
e 274 560
e 274 980
e 275 930
e 275 428
e 275 740
e 275 474
e 275 802
e 276 810
e 276 865
e 276 682
e 276 702
e 277 337
e 277 305
e 277 365
e 277 392
e 277 609
e 277 557
e 278 435
e 278 975
e 279 375
e 279 661
e 279 368
e 279 367
e 279 826
e 280 653
e 280 806
e 280 644
e 280 464
e 280 927
e 281 456
e 281 789
e 281 380
e 281 565
e 281 792
e 282 804
e 282 790
e 282 577
e 283 556
e 283 426
e 283 396
e 283 864
e 283 434
e 284 435
e 284 358
e 284 322
e 284 401
e 285 859
e 285 352
e 285 864
e 285 922
e 286 784
e 286 320
e 286 364
e 286 598
e 286 749
e 286 764
e 287 714
e 287 667
e 287 945
e 288 449
e 288 918
e 288 661
e 291 624
e 291 362
e 291 562
e 293 743
e 293 852
e 293 482
e 293 810
e 293 846
e 293 919
e 293 338
e 293 933
e 294 973
e 294 508
e 294 624
e 294 328
e 294 423
e 295 699
e 295 335
e 295 974
e 296 344
e 296 604
e 296 577
e 296 451
e 296 811
e 297 781
e 297 453
e 297 789
e 297 585
e 297 772
e 298 400
e 298 463
e 298 585
e 298 411
e 299 350
e 299 617
e 299 430
e 300 686
e 301 560
e 301 314
e 301 353
e 303 877
e 303 552
e 303 823
e 303 379
e 304 801
e 304 837
e 305 775
e 305 865
e 305 757
e 307 652
e 307 311
e 309 569
e 310 367
e 310 721
e 310 759
e 310 736
e 311 798
e 311 729
e 311 469
e 313 461
e 313 467
e 313 314
e 313 621
e 313 611
e 313 566
e 313 528
e 314 367
e 314 417
e 314 393
e 314 697
e 315 732
e 315 773
e 318 697
e 318 560
e 319 868
e 319 328
e 319 729
e 319 536
e 319 854
e 320 435
e 320 512
e 321 432
e 321 819
e 322 450
e 322 500
e 322 589
e 322 675
e 322 335
e 322 595
e 322 680
e 322 914
e 322 615
e 322 383
e 323 377
e 324 755
e 324 803
e 327 384
e 327 347
e 327 485
e 327 430
e 328 824
e 328 571
e 328 768
e 329 526
e 329 605
e 329 522
e 330 884
e 330 533
e 331 667
e 331 885
e 332 648
e 332 984
e 332 903
e 332 618
e 332 906
e 333 779
e 333 501
e 335 980
e 335 792
e 336 902
e 336 923
e 336 855
e 337 530
e 337 375
e 337 711
e 337 812
e 337 577
e 337 366
e 337 749
e 338 695
e 339 647
e 339 349
e 339 852
e 339 479
e 340 372
e 340 818
e 341 668
e 341 640
e 341 569
e 342 425
e 342 676
e 342 628
e 342 502
e 342 467
e 342 606
e 343 386
e 343 863
e 344 474
e 344 450
e 344 788
e 345 648
e 345 399
e 346 877
e 347 744
e 349 696
e 349 449
e 350 921
e 350 854
e 350 355
e 350 434
e 350 444
e 351 539
e 351 551
e 352 736
e 352 899
e 353 786
e 353 604
e 353 444
e 354 446
e 355 558
e 355 539
e 355 573
e 355 776
e 356 673
e 356 544
e 356 716
e 356 375
e 356 795
e 357 534
e 357 361
e 357 838
e 357 783
e 357 641
e 357 378
e 357 655
e 358 938
e 359 631
e 359 509
e 359 993
e 359 670
e 359 775
e 360 581
e 360 911
e 360 818
e 360 846
e 361 789
e 361 506
e 361 917
e 361 654
e 362 911
e 362 456
e 362 539
e 362 699
e 362 580
e 363 499
e 363 738
e 363 925
e 363 772
e 363 797
e 363 386
e 364 492
e 364 914
e 365 589
e 365 742
e 365 504
e 365 929
e 365 422
e 365 999
e 366 912
e 366 784
e 368 814
e 368 931
e 368 751
e 368 530
e 369 564
e 369 578
e 370 387
e 370 673
e 370 918
e 371 615
e 371 424
e 371 690
e 372 923
e 373 865
e 373 970
e 373 528
e 373 615
e 373 845
e 373 602
e 373 545
e 374 622
e 375 526
e 375 453
e 375 743
e 375 655
e 376 880
e 376 466
e 377 490
e 377 588
e 377 695
e 378 512
e 379 712
e 379 720
e 379 804
e 380 490
e 380 966
e 380 983
e 381 740
e 381 647
e 381 942
e 382 513
e 382 634
e 382 910
e 383 493
e 383 404
e 384 686
e 384 871
e 384 461
e 385 542
e 385 541
e 385 609
e 386 776
e 387 600
e 387 813
e 387 755
e 388 463
e 388 686
e 388 600
e 388 588
e 388 415
e 388 767
e 390 425
e 390 517
e 390 582
e 390 979
e 392 775
e 392 843
e 393 826
e 393 515
e 393 523
e 393 697
e 396 738
e 396 460
e 396 582
e 397 572
e 397 541
e 397 694
e 397 833
e 399 737
e 399 414
e 400 590
e 401 466
e 401 835
e 401 970
e 403 547
e 403 989
e 403 757
e 404 605
e 404 750
e 405 519
e 405 586
e 405 453
e 405 745
e 406 1000
e 406 935
e 406 661
e 407 417
e 407 496
e 407 983
e 407 551
e 408 958
e 408 853
e 411 701
e 411 787
e 412 854
e 412 634
e 412 937
e 412 897
e 412 611
e 413 884
e 413 649
e 413 657
e 413 868
e 413 956
e 414 566
e 414 717
e 415 640
e 417 956
e 417 967
e 419 750
e 420 716
e 420 614
e 420 717
e 420 617
e 420 424
e 420 896
e 421 695
e 421 893
e 421 648
e 421 674
e 422 777
e 422 895
e 422 673
e 423 976
e 424 820
e 424 808
e 425 526
e 425 777
e 426 511
e 426 800
e 427 911
e 427 548
e 427 562
e 427 967
e 428 718
e 428 903
e 429 870
e 429 752
e 429 770
e 429 613
e 430 846
e 431 598
e 431 580
e 432 570
e 432 521
e 433 489
e 433 892
e 433 619
e 433 759
e 434 674
e 434 595
e 435 606
e 435 880
e 435 712
e 435 790
e 436 569
e 436 935
e 436 664
e 438 535
e 438 759
e 439 488
e 439 811
e 439 777
e 440 676
e 440 589
e 440 918
e 441 443
e 441 525
e 441 848
e 443 596
e 443 990
e 444 533
e 444 930
e 446 699
e 449 666
e 449 837
e 449 879
e 449 657
e 450 650
e 451 508
e 451 650
e 451 860
e 451 993
e 453 474
e 454 892
e 454 919
e 455 638
e 455 770
e 455 980
e 456 983
e 456 860
e 458 640
e 458 539
e 458 504
e 458 578
e 459 654
e 459 899
e 459 485
e 459 620
e 460 957
e 460 747
e 461 622
e 461 860
e 463 614
e 464 523
e 464 837
e 465 611
e 466 738
e 467 694
e 467 988
e 467 827
e 467 957
e 468 867
e 469 636
e 469 745
e 469 519
e 470 692
e 470 828
e 470 638
e 471 763
e 471 898
e 471 798
e 473 835
e 474 895
e 474 668
e 476 957
e 476 903
e 477 489
e 477 978
e 477 847
e 477 668
e 478 655
e 478 515
e 479 571
e 479 859
e 479 748
e 480 578
e 480 766
e 480 745
e 482 828
e 485 871
e 486 992
e 488 491
e 488 655
e 488 531
e 488 989
e 488 665
e 489 923
e 489 558
e 490 665
e 490 506
e 490 901
e 491 621
e 491 641
e 491 717
e 492 657
e 492 692
e 492 651
e 492 803
e 493 661
e 493 938
e 494 643
e 494 787
e 495 622
e 496 957
e 496 847
e 499 775
e 499 604
e 499 772
e 499 576
e 499 578
e 499 710
e 499 796
e 500 996
e 500 838
e 501 797
e 501 778
e 502 893
e 502 714
e 502 618
e 502 959
e 503 702
e 503 631
e 503 926
e 503 578
e 504 913
e 504 787
e 505 627
e 505 939
e 505 625
e 505 870
e 507 711
e 507 982
e 509 922
e 509 854
e 509 608
e 510 547
e 510 786
e 511 686
e 511 925
e 512 668
e 512 648
e 513 897
e 514 904
e 514 983
e 517 788
e 517 827
e 521 741
e 521 778
e 522 884
e 522 952
e 522 835
e 523 764
e 525 922
e 525 914
e 526 582
e 526 530
e 527 854
e 527 923
e 528 829
e 529 919
e 529 873
e 530 672
e 530 839
e 531 891
e 531 730
e 531 533
e 533 737
e 534 801
e 534 604
e 535 996
e 535 829
e 535 812
e 536 845
e 536 648
e 536 537
e 537 571
e 537 810
e 539 881
e 539 987
e 541 887
e 541 820
e 542 550
e 542 606
e 544 784
e 544 748
e 544 811
e 545 768
e 545 779
e 547 809
e 547 941
e 547 879
e 548 628
e 548 620
e 548 833
e 550 673
e 550 845
e 551 929
e 551 734
e 551 911
e 552 815
e 552 976
e 553 893
e 555 690
e 555 627
e 555 748
e 555 556
e 556 841
e 557 617
e 557 956
e 558 876
e 558 819
e 558 796
e 559 826
e 559 819
e 560 857
e 562 833
e 562 653
e 562 829
e 564 687
e 565 604
e 565 919
e 565 843
e 566 713
e 567 572
e 567 827
e 567 849
e 568 607
e 568 614
e 568 619
e 569 764
e 570 970
e 570 853
e 571 980
e 573 823
e 573 700
e 575 980
e 575 763
e 576 586
e 577 800
e 578 651
e 579 862
e 579 851
e 579 865
e 580 742
e 580 777
e 581 996
e 581 700
e 581 752
e 582 939
e 582 851
e 582 703
e 583 807
e 583 833
e 583 870
e 583 787
e 585 851
e 585 647
e 585 727
e 586 727
e 586 674
e 588 843
e 589 957
e 589 690
e 589 757
e 590 918
e 590 747
e 590 970
e 590 665
e 593 972
e 593 955
e 595 617
e 595 701
e 596 766
e 596 884
e 596 881
e 598 692
e 598 813
e 599 921
e 602 942
e 603 946
e 604 672
e 604 899
e 605 895
e 605 896
e 605 757
e 605 829
e 605 942
e 606 999
e 606 826
e 606 744
e 607 670
e 607 739
e 607 832
e 607 674
e 607 742
e 608 628
e 608 764
e 608 924
e 608 832
e 608 992
e 609 984
e 611 900
e 612 837
e 612 879
e 612 626
e 613 625
e 615 804
e 615 952
e 616 751
e 616 910
e 617 901
e 618 854
e 618 751
e 618 772
e 619 973
e 619 878
e 621 957
e 621 937
e 622 936
e 622 871
e 622 959
e 624 661
e 624 904
e 624 987
e 625 718
e 626 819
e 627 887
e 627 666
e 628 868
e 629 902
e 634 712
e 634 820
e 634 666
e 636 811
e 637 809
e 637 674
e 637 903
e 638 795
e 640 892
e 641 695
e 643 814
e 643 666
e 643 794
e 644 717
e 644 946
e 646 927
e 646 739
e 646 936
e 647 980
e 647 986
e 648 974
e 649 955
e 649 720
e 649 824
e 649 911
e 649 725
e 650 801
e 652 783
e 652 807
e 652 992
e 653 739
e 654 818
e 654 700
e 655 943
e 657 718
e 661 696
e 663 966
e 664 803
e 665 757
e 665 796
e 666 1000
e 667 976
e 668 692
e 672 859
e 673 912
e 675 791
e 675 945
e 677 779
e 677 757
e 677 690
e 677 720
e 680 987
e 680 963
e 680 975
e 680 907
e 682 921
e 682 807
e 683 938
e 684 862
e 684 919
e 684 810
e 686 976
e 687 928
e 687 901
e 687 765
e 690 929
e 692 900
e 695 785
e 695 979
e 696 839
e 697 804
e 699 711
e 700 930
e 701 863
e 701 896
e 701 739
e 702 827
e 709 924
e 710 769
e 710 766
e 711 837
e 711 832
e 711 892
e 712 876
e 712 795
e 712 815
e 712 741
e 716 992
e 717 847
e 718 763
e 723 923
e 727 857
e 727 936
e 729 810
e 729 839
e 730 934
e 730 936
e 731 748
e 731 869
e 732 889
e 732 833
e 732 849
e 732 863
e 732 981
e 732 970
e 734 778
e 736 808
e 737 800
e 737 778
e 738 951
e 740 958
e 741 898
e 741 881
e 742 936
e 743 916
e 743 831
e 744 852
e 749 898
e 750 881
e 751 981
e 752 803
e 755 837
e 757 972
e 757 794
e 760 805
e 760 855
e 760 801
e 766 906
e 768 993
e 769 841
e 769 791
e 771 879
e 771 774
e 773 781
e 773 817
e 774 922
e 774 889
e 775 830
e 776 934
e 776 853
e 781 819
e 784 940
e 784 808
e 785 927
e 788 835
e 789 864
e 789 854
e 789 906
e 790 876
e 791 797
e 796 937
e 796 934
e 800 955
e 802 962
e 802 900
e 804 958
e 805 815
e 805 938
e 806 811
e 806 975
e 807 812
e 808 943
e 810 855
e 811 860
e 811 967
e 813 987
e 813 942
e 815 910
e 817 885
e 817 925
e 818 933
e 818 928
e 818 962
e 819 878
e 819 849
e 823 906
e 824 924
e 827 871
e 830 963
e 831 848
e 835 910
e 835 919
e 841 955
e 841 868
e 845 916
e 845 958
e 846 869
e 848 897
e 851 915
e 853 892
e 857 863
e 864 907
e 866 904
e 876 931
e 876 895
e 876 911
e 877 914
e 880 901
e 880 911
e 885 937
e 891 974
e 897 928
e 899 984
e 901 915
e 902 914
e 904 910
e 913 1000
e 935 975
e 941 982
e 941 943
e 951 987
e 951 975
e 959 999
e 962 974
e 963 986
e 972 979
e 977 982
